translation_toolchain/data/dat/R041.dat
/* Cplex Data generated on 2017-12-15 */

k = 10;

b = 3;

AtomicConstraints = {
	 <7, 6>,
	 <8, 6>,
	 <8, 10>,
	 <5, 4>,
	 }; 

SoftAtomicConstraints = {
	 <2, 1>,
	 <3, 2>,
	 <10, 6>,
	 <8, 7>,
	 <9, 8>,
	 <5, 9>,
	 <4, 10>,
	 }; 

DisjunctiveConstraints = {
	 <2, 3, 2, 1>,
	 }; 

DirectSuccessors = {
	 }; 

